c created by edge2cnf
p cnf 500 3100
-1 -2 0
-1 -3 0
-1 -4 0
-1 -5 0
-2 -3 0
-2 -4 0
-2 -5 0
-3 -4 0
-3 -5 0
-4 -5 0
1 2 3 4 5 0
-6 -7 0
-6 -8 0
-6 -9 0
-6 -10 0
-7 -8 0
-7 -9 0
-7 -10 0
-8 -9 0
-8 -10 0
-9 -10 0
6 7 8 9 10 0
-11 -12 0
-11 -13 0
-11 -14 0
-11 -15 0
-12 -13 0
-12 -14 0
-12 -15 0
-13 -14 0
-13 -15 0
-14 -15 0
11 12 13 14 15 0
-16 -17 0
-16 -18 0
-16 -19 0
-16 -20 0
-17 -18 0
-17 -19 0
-17 -20 0
-18 -19 0
-18 -20 0
-19 -20 0
16 17 18 19 20 0
-21 -22 0
-21 -23 0
-21 -24 0
-21 -25 0
-22 -23 0
-22 -24 0
-22 -25 0
-23 -24 0
-23 -25 0
-24 -25 0
21 22 23 24 25 0
-26 -27 0
-26 -28 0
-26 -29 0
-26 -30 0
-27 -28 0
-27 -29 0
-27 -30 0
-28 -29 0
-28 -30 0
-29 -30 0
26 27 28 29 30 0
-31 -32 0
-31 -33 0
-31 -34 0
-31 -35 0
-32 -33 0
-32 -34 0
-32 -35 0
-33 -34 0
-33 -35 0
-34 -35 0
31 32 33 34 35 0
-36 -37 0
-36 -38 0
-36 -39 0
-36 -40 0
-37 -38 0
-37 -39 0
-37 -40 0
-38 -39 0
-38 -40 0
-39 -40 0
36 37 38 39 40 0
-41 -42 0
-41 -43 0
-41 -44 0
-41 -45 0
-42 -43 0
-42 -44 0
-42 -45 0
-43 -44 0
-43 -45 0
-44 -45 0
41 42 43 44 45 0
-46 -47 0
-46 -48 0
-46 -49 0
-46 -50 0
-47 -48 0
-47 -49 0
-47 -50 0
-48 -49 0
-48 -50 0
-49 -50 0
46 47 48 49 50 0
-51 -52 0
-51 -53 0
-51 -54 0
-51 -55 0
-52 -53 0
-52 -54 0
-52 -55 0
-53 -54 0
-53 -55 0
-54 -55 0
51 52 53 54 55 0
-56 -57 0
-56 -58 0
-56 -59 0
-56 -60 0
-57 -58 0
-57 -59 0
-57 -60 0
-58 -59 0
-58 -60 0
-59 -60 0
56 57 58 59 60 0
-61 -62 0
-61 -63 0
-61 -64 0
-61 -65 0
-62 -63 0
-62 -64 0
-62 -65 0
-63 -64 0
-63 -65 0
-64 -65 0
61 62 63 64 65 0
-66 -67 0
-66 -68 0
-66 -69 0
-66 -70 0
-67 -68 0
-67 -69 0
-67 -70 0
-68 -69 0
-68 -70 0
-69 -70 0
66 67 68 69 70 0
-71 -72 0
-71 -73 0
-71 -74 0
-71 -75 0
-72 -73 0
-72 -74 0
-72 -75 0
-73 -74 0
-73 -75 0
-74 -75 0
71 72 73 74 75 0
-76 -77 0
-76 -78 0
-76 -79 0
-76 -80 0
-77 -78 0
-77 -79 0
-77 -80 0
-78 -79 0
-78 -80 0
-79 -80 0
76 77 78 79 80 0
-81 -82 0
-81 -83 0
-81 -84 0
-81 -85 0
-82 -83 0
-82 -84 0
-82 -85 0
-83 -84 0
-83 -85 0
-84 -85 0
81 82 83 84 85 0
-86 -87 0
-86 -88 0
-86 -89 0
-86 -90 0
-87 -88 0
-87 -89 0
-87 -90 0
-88 -89 0
-88 -90 0
-89 -90 0
86 87 88 89 90 0
-91 -92 0
-91 -93 0
-91 -94 0
-91 -95 0
-92 -93 0
-92 -94 0
-92 -95 0
-93 -94 0
-93 -95 0
-94 -95 0
91 92 93 94 95 0
-96 -97 0
-96 -98 0
-96 -99 0
-96 -100 0
-97 -98 0
-97 -99 0
-97 -100 0
-98 -99 0
-98 -100 0
-99 -100 0
96 97 98 99 100 0
-101 -102 0
-101 -103 0
-101 -104 0
-101 -105 0
-102 -103 0
-102 -104 0
-102 -105 0
-103 -104 0
-103 -105 0
-104 -105 0
101 102 103 104 105 0
-106 -107 0
-106 -108 0
-106 -109 0
-106 -110 0
-107 -108 0
-107 -109 0
-107 -110 0
-108 -109 0
-108 -110 0
-109 -110 0
106 107 108 109 110 0
-111 -112 0
-111 -113 0
-111 -114 0
-111 -115 0
-112 -113 0
-112 -114 0
-112 -115 0
-113 -114 0
-113 -115 0
-114 -115 0
111 112 113 114 115 0
-116 -117 0
-116 -118 0
-116 -119 0
-116 -120 0
-117 -118 0
-117 -119 0
-117 -120 0
-118 -119 0
-118 -120 0
-119 -120 0
116 117 118 119 120 0
-121 -122 0
-121 -123 0
-121 -124 0
-121 -125 0
-122 -123 0
-122 -124 0
-122 -125 0
-123 -124 0
-123 -125 0
-124 -125 0
121 122 123 124 125 0
-126 -127 0
-126 -128 0
-126 -129 0
-126 -130 0
-127 -128 0
-127 -129 0
-127 -130 0
-128 -129 0
-128 -130 0
-129 -130 0
126 127 128 129 130 0
-131 -132 0
-131 -133 0
-131 -134 0
-131 -135 0
-132 -133 0
-132 -134 0
-132 -135 0
-133 -134 0
-133 -135 0
-134 -135 0
131 132 133 134 135 0
-136 -137 0
-136 -138 0
-136 -139 0
-136 -140 0
-137 -138 0
-137 -139 0
-137 -140 0
-138 -139 0
-138 -140 0
-139 -140 0
136 137 138 139 140 0
-141 -142 0
-141 -143 0
-141 -144 0
-141 -145 0
-142 -143 0
-142 -144 0
-142 -145 0
-143 -144 0
-143 -145 0
-144 -145 0
141 142 143 144 145 0
-146 -147 0
-146 -148 0
-146 -149 0
-146 -150 0
-147 -148 0
-147 -149 0
-147 -150 0
-148 -149 0
-148 -150 0
-149 -150 0
146 147 148 149 150 0
-151 -152 0
-151 -153 0
-151 -154 0
-151 -155 0
-152 -153 0
-152 -154 0
-152 -155 0
-153 -154 0
-153 -155 0
-154 -155 0
151 152 153 154 155 0
-156 -157 0
-156 -158 0
-156 -159 0
-156 -160 0
-157 -158 0
-157 -159 0
-157 -160 0
-158 -159 0
-158 -160 0
-159 -160 0
156 157 158 159 160 0
-161 -162 0
-161 -163 0
-161 -164 0
-161 -165 0
-162 -163 0
-162 -164 0
-162 -165 0
-163 -164 0
-163 -165 0
-164 -165 0
161 162 163 164 165 0
-166 -167 0
-166 -168 0
-166 -169 0
-166 -170 0
-167 -168 0
-167 -169 0
-167 -170 0
-168 -169 0
-168 -170 0
-169 -170 0
166 167 168 169 170 0
-171 -172 0
-171 -173 0
-171 -174 0
-171 -175 0
-172 -173 0
-172 -174 0
-172 -175 0
-173 -174 0
-173 -175 0
-174 -175 0
171 172 173 174 175 0
-176 -177 0
-176 -178 0
-176 -179 0
-176 -180 0
-177 -178 0
-177 -179 0
-177 -180 0
-178 -179 0
-178 -180 0
-179 -180 0
176 177 178 179 180 0
-181 -182 0
-181 -183 0
-181 -184 0
-181 -185 0
-182 -183 0
-182 -184 0
-182 -185 0
-183 -184 0
-183 -185 0
-184 -185 0
181 182 183 184 185 0
-186 -187 0
-186 -188 0
-186 -189 0
-186 -190 0
-187 -188 0
-187 -189 0
-187 -190 0
-188 -189 0
-188 -190 0
-189 -190 0
186 187 188 189 190 0
-191 -192 0
-191 -193 0
-191 -194 0
-191 -195 0
-192 -193 0
-192 -194 0
-192 -195 0
-193 -194 0
-193 -195 0
-194 -195 0
191 192 193 194 195 0
-196 -197 0
-196 -198 0
-196 -199 0
-196 -200 0
-197 -198 0
-197 -199 0
-197 -200 0
-198 -199 0
-198 -200 0
-199 -200 0
196 197 198 199 200 0
-201 -202 0
-201 -203 0
-201 -204 0
-201 -205 0
-202 -203 0
-202 -204 0
-202 -205 0
-203 -204 0
-203 -205 0
-204 -205 0
201 202 203 204 205 0
-206 -207 0
-206 -208 0
-206 -209 0
-206 -210 0
-207 -208 0
-207 -209 0
-207 -210 0
-208 -209 0
-208 -210 0
-209 -210 0
206 207 208 209 210 0
-211 -212 0
-211 -213 0
-211 -214 0
-211 -215 0
-212 -213 0
-212 -214 0
-212 -215 0
-213 -214 0
-213 -215 0
-214 -215 0
211 212 213 214 215 0
-216 -217 0
-216 -218 0
-216 -219 0
-216 -220 0
-217 -218 0
-217 -219 0
-217 -220 0
-218 -219 0
-218 -220 0
-219 -220 0
216 217 218 219 220 0
-221 -222 0
-221 -223 0
-221 -224 0
-221 -225 0
-222 -223 0
-222 -224 0
-222 -225 0
-223 -224 0
-223 -225 0
-224 -225 0
221 222 223 224 225 0
-226 -227 0
-226 -228 0
-226 -229 0
-226 -230 0
-227 -228 0
-227 -229 0
-227 -230 0
-228 -229 0
-228 -230 0
-229 -230 0
226 227 228 229 230 0
-231 -232 0
-231 -233 0
-231 -234 0
-231 -235 0
-232 -233 0
-232 -234 0
-232 -235 0
-233 -234 0
-233 -235 0
-234 -235 0
231 232 233 234 235 0
-236 -237 0
-236 -238 0
-236 -239 0
-236 -240 0
-237 -238 0
-237 -239 0
-237 -240 0
-238 -239 0
-238 -240 0
-239 -240 0
236 237 238 239 240 0
-241 -242 0
-241 -243 0
-241 -244 0
-241 -245 0
-242 -243 0
-242 -244 0
-242 -245 0
-243 -244 0
-243 -245 0
-244 -245 0
241 242 243 244 245 0
-246 -247 0
-246 -248 0
-246 -249 0
-246 -250 0
-247 -248 0
-247 -249 0
-247 -250 0
-248 -249 0
-248 -250 0
-249 -250 0
246 247 248 249 250 0
-251 -252 0
-251 -253 0
-251 -254 0
-251 -255 0
-252 -253 0
-252 -254 0
-252 -255 0
-253 -254 0
-253 -255 0
-254 -255 0
251 252 253 254 255 0
-256 -257 0
-256 -258 0
-256 -259 0
-256 -260 0
-257 -258 0
-257 -259 0
-257 -260 0
-258 -259 0
-258 -260 0
-259 -260 0
256 257 258 259 260 0
-261 -262 0
-261 -263 0
-261 -264 0
-261 -265 0
-262 -263 0
-262 -264 0
-262 -265 0
-263 -264 0
-263 -265 0
-264 -265 0
261 262 263 264 265 0
-266 -267 0
-266 -268 0
-266 -269 0
-266 -270 0
-267 -268 0
-267 -269 0
-267 -270 0
-268 -269 0
-268 -270 0
-269 -270 0
266 267 268 269 270 0
-271 -272 0
-271 -273 0
-271 -274 0
-271 -275 0
-272 -273 0
-272 -274 0
-272 -275 0
-273 -274 0
-273 -275 0
-274 -275 0
271 272 273 274 275 0
-276 -277 0
-276 -278 0
-276 -279 0
-276 -280 0
-277 -278 0
-277 -279 0
-277 -280 0
-278 -279 0
-278 -280 0
-279 -280 0
276 277 278 279 280 0
-281 -282 0
-281 -283 0
-281 -284 0
-281 -285 0
-282 -283 0
-282 -284 0
-282 -285 0
-283 -284 0
-283 -285 0
-284 -285 0
281 282 283 284 285 0
-286 -287 0
-286 -288 0
-286 -289 0
-286 -290 0
-287 -288 0
-287 -289 0
-287 -290 0
-288 -289 0
-288 -290 0
-289 -290 0
286 287 288 289 290 0
-291 -292 0
-291 -293 0
-291 -294 0
-291 -295 0
-292 -293 0
-292 -294 0
-292 -295 0
-293 -294 0
-293 -295 0
-294 -295 0
291 292 293 294 295 0
-296 -297 0
-296 -298 0
-296 -299 0
-296 -300 0
-297 -298 0
-297 -299 0
-297 -300 0
-298 -299 0
-298 -300 0
-299 -300 0
296 297 298 299 300 0
-301 -302 0
-301 -303 0
-301 -304 0
-301 -305 0
-302 -303 0
-302 -304 0
-302 -305 0
-303 -304 0
-303 -305 0
-304 -305 0
301 302 303 304 305 0
-306 -307 0
-306 -308 0
-306 -309 0
-306 -310 0
-307 -308 0
-307 -309 0
-307 -310 0
-308 -309 0
-308 -310 0
-309 -310 0
306 307 308 309 310 0
-311 -312 0
-311 -313 0
-311 -314 0
-311 -315 0
-312 -313 0
-312 -314 0
-312 -315 0
-313 -314 0
-313 -315 0
-314 -315 0
311 312 313 314 315 0
-316 -317 0
-316 -318 0
-316 -319 0
-316 -320 0
-317 -318 0
-317 -319 0
-317 -320 0
-318 -319 0
-318 -320 0
-319 -320 0
316 317 318 319 320 0
-321 -322 0
-321 -323 0
-321 -324 0
-321 -325 0
-322 -323 0
-322 -324 0
-322 -325 0
-323 -324 0
-323 -325 0
-324 -325 0
321 322 323 324 325 0
-326 -327 0
-326 -328 0
-326 -329 0
-326 -330 0
-327 -328 0
-327 -329 0
-327 -330 0
-328 -329 0
-328 -330 0
-329 -330 0
326 327 328 329 330 0
-331 -332 0
-331 -333 0
-331 -334 0
-331 -335 0
-332 -333 0
-332 -334 0
-332 -335 0
-333 -334 0
-333 -335 0
-334 -335 0
331 332 333 334 335 0
-336 -337 0
-336 -338 0
-336 -339 0
-336 -340 0
-337 -338 0
-337 -339 0
-337 -340 0
-338 -339 0
-338 -340 0
-339 -340 0
336 337 338 339 340 0
-341 -342 0
-341 -343 0
-341 -344 0
-341 -345 0
-342 -343 0
-342 -344 0
-342 -345 0
-343 -344 0
-343 -345 0
-344 -345 0
341 342 343 344 345 0
-346 -347 0
-346 -348 0
-346 -349 0
-346 -350 0
-347 -348 0
-347 -349 0
-347 -350 0
-348 -349 0
-348 -350 0
-349 -350 0
346 347 348 349 350 0
-351 -352 0
-351 -353 0
-351 -354 0
-351 -355 0
-352 -353 0
-352 -354 0
-352 -355 0
-353 -354 0
-353 -355 0
-354 -355 0
351 352 353 354 355 0
-356 -357 0
-356 -358 0
-356 -359 0
-356 -360 0
-357 -358 0
-357 -359 0
-357 -360 0
-358 -359 0
-358 -360 0
-359 -360 0
356 357 358 359 360 0
-361 -362 0
-361 -363 0
-361 -364 0
-361 -365 0
-362 -363 0
-362 -364 0
-362 -365 0
-363 -364 0
-363 -365 0
-364 -365 0
361 362 363 364 365 0
-366 -367 0
-366 -368 0
-366 -369 0
-366 -370 0
-367 -368 0
-367 -369 0
-367 -370 0
-368 -369 0
-368 -370 0
-369 -370 0
366 367 368 369 370 0
-371 -372 0
-371 -373 0
-371 -374 0
-371 -375 0
-372 -373 0
-372 -374 0
-372 -375 0
-373 -374 0
-373 -375 0
-374 -375 0
371 372 373 374 375 0
-376 -377 0
-376 -378 0
-376 -379 0
-376 -380 0
-377 -378 0
-377 -379 0
-377 -380 0
-378 -379 0
-378 -380 0
-379 -380 0
376 377 378 379 380 0
-381 -382 0
-381 -383 0
-381 -384 0
-381 -385 0
-382 -383 0
-382 -384 0
-382 -385 0
-383 -384 0
-383 -385 0
-384 -385 0
381 382 383 384 385 0
-386 -387 0
-386 -388 0
-386 -389 0
-386 -390 0
-387 -388 0
-387 -389 0
-387 -390 0
-388 -389 0
-388 -390 0
-389 -390 0
386 387 388 389 390 0
-391 -392 0
-391 -393 0
-391 -394 0
-391 -395 0
-392 -393 0
-392 -394 0
-392 -395 0
-393 -394 0
-393 -395 0
-394 -395 0
391 392 393 394 395 0
-396 -397 0
-396 -398 0
-396 -399 0
-396 -400 0
-397 -398 0
-397 -399 0
-397 -400 0
-398 -399 0
-398 -400 0
-399 -400 0
396 397 398 399 400 0
-401 -402 0
-401 -403 0
-401 -404 0
-401 -405 0
-402 -403 0
-402 -404 0
-402 -405 0
-403 -404 0
-403 -405 0
-404 -405 0
401 402 403 404 405 0
-406 -407 0
-406 -408 0
-406 -409 0
-406 -410 0
-407 -408 0
-407 -409 0
-407 -410 0
-408 -409 0
-408 -410 0
-409 -410 0
406 407 408 409 410 0
-411 -412 0
-411 -413 0
-411 -414 0
-411 -415 0
-412 -413 0
-412 -414 0
-412 -415 0
-413 -414 0
-413 -415 0
-414 -415 0
411 412 413 414 415 0
-416 -417 0
-416 -418 0
-416 -419 0
-416 -420 0
-417 -418 0
-417 -419 0
-417 -420 0
-418 -419 0
-418 -420 0
-419 -420 0
416 417 418 419 420 0
-421 -422 0
-421 -423 0
-421 -424 0
-421 -425 0
-422 -423 0
-422 -424 0
-422 -425 0
-423 -424 0
-423 -425 0
-424 -425 0
421 422 423 424 425 0
-426 -427 0
-426 -428 0
-426 -429 0
-426 -430 0
-427 -428 0
-427 -429 0
-427 -430 0
-428 -429 0
-428 -430 0
-429 -430 0
426 427 428 429 430 0
-431 -432 0
-431 -433 0
-431 -434 0
-431 -435 0
-432 -433 0
-432 -434 0
-432 -435 0
-433 -434 0
-433 -435 0
-434 -435 0
431 432 433 434 435 0
-436 -437 0
-436 -438 0
-436 -439 0
-436 -440 0
-437 -438 0
-437 -439 0
-437 -440 0
-438 -439 0
-438 -440 0
-439 -440 0
436 437 438 439 440 0
-441 -442 0
-441 -443 0
-441 -444 0
-441 -445 0
-442 -443 0
-442 -444 0
-442 -445 0
-443 -444 0
-443 -445 0
-444 -445 0
441 442 443 444 445 0
-446 -447 0
-446 -448 0
-446 -449 0
-446 -450 0
-447 -448 0
-447 -449 0
-447 -450 0
-448 -449 0
-448 -450 0
-449 -450 0
446 447 448 449 450 0
-451 -452 0
-451 -453 0
-451 -454 0
-451 -455 0
-452 -453 0
-452 -454 0
-452 -455 0
-453 -454 0
-453 -455 0
-454 -455 0
451 452 453 454 455 0
-456 -457 0
-456 -458 0
-456 -459 0
-456 -460 0
-457 -458 0
-457 -459 0
-457 -460 0
-458 -459 0
-458 -460 0
-459 -460 0
456 457 458 459 460 0
-461 -462 0
-461 -463 0
-461 -464 0
-461 -465 0
-462 -463 0
-462 -464 0
-462 -465 0
-463 -464 0
-463 -465 0
-464 -465 0
461 462 463 464 465 0
-466 -467 0
-466 -468 0
-466 -469 0
-466 -470 0
-467 -468 0
-467 -469 0
-467 -470 0
-468 -469 0
-468 -470 0
-469 -470 0
466 467 468 469 470 0
-471 -472 0
-471 -473 0
-471 -474 0
-471 -475 0
-472 -473 0
-472 -474 0
-472 -475 0
-473 -474 0
-473 -475 0
-474 -475 0
471 472 473 474 475 0
-476 -477 0
-476 -478 0
-476 -479 0
-476 -480 0
-477 -478 0
-477 -479 0
-477 -480 0
-478 -479 0
-478 -480 0
-479 -480 0
476 477 478 479 480 0
-481 -482 0
-481 -483 0
-481 -484 0
-481 -485 0
-482 -483 0
-482 -484 0
-482 -485 0
-483 -484 0
-483 -485 0
-484 -485 0
481 482 483 484 485 0
-486 -487 0
-486 -488 0
-486 -489 0
-486 -490 0
-487 -488 0
-487 -489 0
-487 -490 0
-488 -489 0
-488 -490 0
-489 -490 0
486 487 488 489 490 0
-491 -492 0
-491 -493 0
-491 -494 0
-491 -495 0
-492 -493 0
-492 -494 0
-492 -495 0
-493 -494 0
-493 -495 0
-494 -495 0
491 492 493 494 495 0
-496 -497 0
-496 -498 0
-496 -499 0
-496 -500 0
-497 -498 0
-497 -499 0
-497 -500 0
-498 -499 0
-498 -500 0
-499 -500 0
496 497 498 499 500 0
-16 -31 0
-17 -32 0
-18 -33 0
-19 -34 0
-20 -35 0
-46 -66 0
-47 -67 0
-48 -68 0
-49 -69 0
-50 -70 0
-51 -61 0
-52 -62 0
-53 -63 0
-54 -64 0
-55 -65 0
-56 -61 0
-57 -62 0
-58 -63 0
-59 -64 0
-60 -65 0
-61 -66 0
-62 -67 0
-63 -68 0
-64 -69 0
-65 -70 0
-81 -86 0
-82 -87 0
-83 -88 0
-84 -89 0
-85 -90 0
-81 -101 0
-82 -102 0
-83 -103 0
-84 -104 0
-85 -105 0
-91 -106 0
-92 -107 0
-93 -108 0
-94 -109 0
-95 -110 0
-96 -116 0
-97 -117 0
-98 -118 0
-99 -119 0
-100 -120 0
-146 -156 0
-147 -157 0
-148 -158 0
-149 -159 0
-150 -160 0
-166 -181 0
-167 -182 0
-168 -183 0
-169 -184 0
-170 -185 0
-181 -191 0
-182 -192 0
-183 -193 0
-184 -194 0
-185 -195 0
-191 -196 0
-192 -197 0
-193 -198 0
-194 -199 0
-195 -200 0
-206 -226 0
-207 -227 0
-208 -228 0
-209 -229 0
-210 -230 0
-221 -236 0
-222 -237 0
-223 -238 0
-224 -239 0
-225 -240 0
-236 -251 0
-237 -252 0
-238 -253 0
-239 -254 0
-240 -255 0
-251 -271 0
-252 -272 0
-253 -273 0
-254 -274 0
-255 -275 0
-256 -266 0
-257 -267 0
-258 -268 0
-259 -269 0
-260 -270 0
-276 -281 0
-277 -282 0
-278 -283 0
-279 -284 0
-280 -285 0
-296 -306 0
-297 -307 0
-298 -308 0
-299 -309 0
-300 -310 0
-301 -311 0
-302 -312 0
-303 -313 0
-304 -314 0
-305 -315 0
-301 -316 0
-302 -317 0
-303 -318 0
-304 -319 0
-305 -320 0
-301 -321 0
-302 -322 0
-303 -323 0
-304 -324 0
-305 -325 0
-326 -346 0
-327 -347 0
-328 -348 0
-329 -349 0
-330 -350 0
-391 -401 0
-392 -402 0
-393 -403 0
-394 -404 0
-395 -405 0
-421 -436 0
-422 -437 0
-423 -438 0
-424 -439 0
-425 -440 0
-431 -441 0
-432 -442 0
-433 -443 0
-434 -444 0
-435 -445 0
-436 -441 0
-437 -442 0
-438 -443 0
-439 -444 0
-440 -445 0
-466 -471 0
-467 -472 0
-468 -473 0
-469 -474 0
-470 -475 0
-466 -481 0
-467 -482 0
-468 -483 0
-469 -484 0
-470 -485 0
-481 -486 0
-482 -487 0
-483 -488 0
-484 -489 0
-485 -490 0
-1 -496 0
-2 -497 0
-3 -498 0
-4 -499 0
-5 -500 0
-11 -496 0
-12 -497 0
-13 -498 0
-14 -499 0
-15 -500 0
-16 -496 0
-17 -497 0
-18 -498 0
-19 -499 0
-20 -500 0
-6 -496 0
-7 -497 0
-8 -498 0
-9 -499 0
-10 -500 0
-11 -491 0
-12 -492 0
-13 -493 0
-14 -494 0
-15 -495 0
-6 -491 0
-7 -492 0
-8 -493 0
-9 -494 0
-10 -495 0
-491 -496 0
-492 -497 0
-493 -498 0
-494 -499 0
-495 -500 0
-1 -486 0
-2 -487 0
-3 -488 0
-4 -489 0
-5 -490 0
-476 -496 0
-477 -497 0
-478 -498 0
-479 -499 0
-480 -500 0
-476 -491 0
-477 -492 0
-478 -493 0
-479 -494 0
-480 -495 0
-476 -486 0
-477 -487 0
-478 -488 0
-479 -489 0
-480 -490 0
-476 -481 0
-477 -482 0
-478 -483 0
-479 -484 0
-480 -485 0
-471 -491 0
-472 -492 0
-473 -493 0
-474 -494 0
-475 -495 0
-471 -486 0
-472 -487 0
-473 -488 0
-474 -489 0
-475 -490 0
-461 -476 0
-462 -477 0
-463 -478 0
-464 -479 0
-465 -480 0
-461 -471 0
-462 -472 0
-463 -473 0
-464 -474 0
-465 -475 0
-461 -466 0
-462 -467 0
-463 -468 0
-464 -469 0
-465 -470 0
-456 -471 0
-457 -472 0
-458 -473 0
-459 -474 0
-460 -475 0
-456 -461 0
-457 -462 0
-458 -463 0
-459 -464 0
-460 -465 0
-451 -471 0
-452 -472 0
-453 -473 0
-454 -474 0
-455 -475 0
-451 -466 0
-452 -467 0
-453 -468 0
-454 -469 0
-455 -470 0
-451 -461 0
-452 -462 0
-453 -463 0
-454 -464 0
-455 -465 0
-446 -461 0
-447 -462 0
-448 -463 0
-449 -464 0
-450 -465 0
-441 -461 0
-442 -462 0
-443 -463 0
-444 -464 0
-445 -465 0
-441 -451 0
-442 -452 0
-443 -453 0
-444 -454 0
-445 -455 0
-441 -446 0
-442 -447 0
-443 -448 0
-444 -449 0
-445 -450 0
-436 -456 0
-437 -457 0
-438 -458 0
-439 -459 0
-440 -460 0
-436 -446 0
-437 -447 0
-438 -448 0
-439 -449 0
-440 -450 0
-431 -451 0
-432 -452 0
-433 -453 0
-434 -454 0
-435 -455 0
-431 -436 0
-432 -437 0
-433 -438 0
-434 -439 0
-435 -440 0
-426 -446 0
-427 -447 0
-428 -448 0
-429 -449 0
-430 -450 0
-426 -441 0
-427 -442 0
-428 -443 0
-429 -444 0
-430 -445 0
-421 -426 0
-422 -427 0
-423 -428 0
-424 -429 0
-425 -430 0
-406 -426 0
-407 -427 0
-408 -428 0
-409 -429 0
-410 -430 0
-406 -421 0
-407 -422 0
-408 -423 0
-409 -424 0
-410 -425 0
-406 -416 0
-407 -417 0
-408 -418 0
-409 -419 0
-410 -420 0
-406 -411 0
-407 -412 0
-408 -413 0
-409 -414 0
-410 -415 0
-401 -421 0
-402 -422 0
-403 -423 0
-404 -424 0
-405 -425 0
-401 -416 0
-402 -417 0
-403 -418 0
-404 -419 0
-405 -420 0
-396 -416 0
-397 -417 0
-398 -418 0
-399 -419 0
-400 -420 0
-396 -406 0
-397 -407 0
-398 -408 0
-399 -409 0
-400 -410 0
-386 -406 0
-387 -407 0
-388 -408 0
-389 -409 0
-390 -410 0
-386 -391 0
-387 -392 0
-388 -393 0
-389 -394 0
-390 -395 0
-381 -396 0
-382 -397 0
-383 -398 0
-384 -399 0
-385 -400 0
-381 -391 0
-382 -392 0
-383 -393 0
-384 -394 0
-385 -395 0
-381 -386 0
-382 -387 0
-383 -388 0
-384 -389 0
-385 -390 0
-376 -391 0
-377 -392 0
-378 -393 0
-379 -394 0
-380 -395 0
-376 -381 0
-377 -382 0
-378 -383 0
-379 -384 0
-380 -385 0
-371 -376 0
-372 -377 0
-373 -378 0
-374 -379 0
-375 -380 0
-366 -386 0
-367 -387 0
-368 -388 0
-369 -389 0
-370 -390 0
-361 -381 0
-362 -382 0
-363 -383 0
-364 -384 0
-365 -385 0
-361 -376 0
-362 -377 0
-363 -378 0
-364 -379 0
-365 -380 0
-361 -371 0
-362 -372 0
-363 -373 0
-364 -374 0
-365 -375 0
-361 -366 0
-362 -367 0
-363 -368 0
-364 -369 0
-365 -370 0
-356 -366 0
-357 -367 0
-358 -368 0
-359 -369 0
-360 -370 0
-356 -361 0
-357 -362 0
-358 -363 0
-359 -364 0
-360 -365 0
-351 -361 0
-352 -362 0
-353 -363 0
-354 -364 0
-355 -365 0
-351 -356 0
-352 -357 0
-353 -358 0
-354 -359 0
-355 -360 0
-346 -366 0
-347 -367 0
-348 -368 0
-349 -369 0
-350 -370 0
-346 -356 0
-347 -357 0
-348 -358 0
-349 -359 0
-350 -360 0
-346 -351 0
-347 -352 0
-348 -353 0
-349 -354 0
-350 -355 0
-341 -361 0
-342 -362 0
-343 -363 0
-344 -364 0
-345 -365 0
-336 -356 0
-337 -357 0
-338 -358 0
-339 -359 0
-340 -360 0
-336 -351 0
-337 -352 0
-338 -353 0
-339 -354 0
-340 -355 0
-331 -351 0
-332 -352 0
-333 -353 0
-334 -354 0
-335 -355 0
-331 -346 0
-332 -347 0
-333 -348 0
-334 -349 0
-335 -350 0
-331 -341 0
-332 -342 0
-333 -343 0
-334 -344 0
-335 -345 0
-331 -336 0
-332 -337 0
-333 -338 0
-334 -339 0
-335 -340 0
-326 -341 0
-327 -342 0
-328 -343 0
-329 -344 0
-330 -345 0
-326 -331 0
-327 -332 0
-328 -333 0
-329 -334 0
-330 -335 0
-321 -326 0
-322 -327 0
-323 -328 0
-324 -329 0
-325 -330 0
-316 -336 0
-317 -337 0
-318 -338 0
-319 -339 0
-320 -340 0
-316 -331 0
-317 -332 0
-318 -333 0
-319 -334 0
-320 -335 0
-311 -331 0
-312 -332 0
-313 -333 0
-314 -334 0
-315 -335 0
-311 -326 0
-312 -327 0
-313 -328 0
-314 -329 0
-315 -330 0
-311 -316 0
-312 -317 0
-313 -318 0
-314 -319 0
-315 -320 0
-306 -316 0
-307 -317 0
-308 -318 0
-309 -319 0
-310 -320 0
-296 -316 0
-297 -317 0
-298 -318 0
-299 -319 0
-300 -320 0
-296 -311 0
-297 -312 0
-298 -313 0
-299 -314 0
-300 -315 0
-296 -301 0
-297 -302 0
-298 -303 0
-299 -304 0
-300 -305 0
-291 -296 0
-292 -297 0
-293 -298 0
-294 -299 0
-295 -300 0
-286 -301 0
-287 -302 0
-288 -303 0
-289 -304 0
-290 -305 0
-286 -291 0
-287 -292 0
-288 -293 0
-289 -294 0
-290 -295 0
-281 -301 0
-282 -302 0
-283 -303 0
-284 -304 0
-285 -305 0
-281 -296 0
-282 -297 0
-283 -298 0
-284 -299 0
-285 -300 0
-276 -296 0
-277 -297 0
-278 -298 0
-279 -299 0
-280 -300 0
-276 -286 0
-277 -287 0
-278 -288 0
-279 -289 0
-280 -290 0
-271 -281 0
-272 -282 0
-273 -283 0
-274 -284 0
-275 -285 0
-266 -286 0
-267 -287 0
-268 -288 0
-269 -289 0
-270 -290 0
-266 -276 0
-267 -277 0
-268 -278 0
-269 -279 0
-270 -280 0
-261 -276 0
-262 -277 0
-263 -278 0
-264 -279 0
-265 -280 0
-261 -271 0
-262 -272 0
-263 -273 0
-264 -274 0
-265 -275 0
-261 -266 0
-262 -267 0
-263 -268 0
-264 -269 0
-265 -270 0
-256 -261 0
-257 -262 0
-258 -263 0
-259 -264 0
-260 -265 0
-251 -261 0
-252 -262 0
-253 -263 0
-254 -264 0
-255 -265 0
-246 -256 0
-247 -257 0
-248 -258 0
-249 -259 0
-250 -260 0
-246 -251 0
-247 -252 0
-248 -253 0
-249 -254 0
-250 -255 0
-241 -256 0
-242 -257 0
-243 -258 0
-244 -259 0
-245 -260 0
-241 -251 0
-242 -252 0
-243 -253 0
-244 -254 0
-245 -255 0
-241 -246 0
-242 -247 0
-243 -248 0
-244 -249 0
-245 -250 0
-236 -256 0
-237 -257 0
-238 -258 0
-239 -259 0
-240 -260 0
-236 -246 0
-237 -247 0
-238 -248 0
-239 -249 0
-240 -250 0
-231 -251 0
-232 -252 0
-233 -253 0
-234 -254 0
-235 -255 0
-231 -236 0
-232 -237 0
-233 -238 0
-234 -239 0
-235 -240 0
-226 -241 0
-227 -242 0
-228 -243 0
-229 -244 0
-230 -245 0
-226 -236 0
-227 -237 0
-228 -238 0
-229 -239 0
-230 -240 0
-221 -231 0
-222 -232 0
-223 -233 0
-224 -234 0
-225 -235 0
-216 -236 0
-217 -237 0
-218 -238 0
-219 -239 0
-220 -240 0
-216 -231 0
-217 -232 0
-218 -233 0
-219 -234 0
-220 -235 0
-216 -226 0
-217 -227 0
-218 -228 0
-219 -229 0
-220 -230 0
-211 -231 0
-212 -232 0
-213 -233 0
-214 -234 0
-215 -235 0
-211 -221 0
-212 -222 0
-213 -223 0
-214 -224 0
-215 -225 0
-206 -216 0
-207 -217 0
-208 -218 0
-209 -219 0
-210 -220 0
-201 -216 0
-202 -217 0
-203 -218 0
-204 -219 0
-205 -220 0
-201 -206 0
-202 -207 0
-203 -208 0
-204 -209 0
-205 -210 0
-196 -206 0
-197 -207 0
-198 -208 0
-199 -209 0
-200 -210 0
-196 -201 0
-197 -202 0
-198 -203 0
-199 -204 0
-200 -205 0
-191 -206 0
-192 -207 0
-193 -208 0
-194 -209 0
-195 -210 0
-186 -206 0
-187 -207 0
-188 -208 0
-189 -209 0
-190 -210 0
-186 -196 0
-187 -197 0
-188 -198 0
-189 -199 0
-190 -200 0
-186 -191 0
-187 -192 0
-188 -193 0
-189 -194 0
-190 -195 0
-181 -201 0
-182 -202 0
-183 -203 0
-184 -204 0
-185 -205 0
-181 -186 0
-182 -187 0
-183 -188 0
-184 -189 0
-185 -190 0
-176 -196 0
-177 -197 0
-178 -198 0
-179 -199 0
-180 -200 0
-176 -191 0
-177 -192 0
-178 -193 0
-179 -194 0
-180 -195 0
-176 -186 0
-177 -187 0
-178 -188 0
-179 -189 0
-180 -190 0
-176 -181 0
-177 -182 0
-178 -183 0
-179 -184 0
-180 -185 0
-171 -191 0
-172 -192 0
-173 -193 0
-174 -194 0
-175 -195 0
-171 -176 0
-172 -177 0
-173 -178 0
-174 -179 0
-175 -180 0
-161 -176 0
-162 -177 0
-163 -178 0
-164 -179 0
-165 -180 0
-161 -171 0
-162 -172 0
-163 -173 0
-164 -174 0
-165 -175 0
-156 -176 0
-157 -177 0
-158 -178 0
-159 -179 0
-160 -180 0
-151 -171 0
-152 -172 0
-153 -173 0
-154 -174 0
-155 -175 0
-151 -161 0
-152 -162 0
-153 -163 0
-154 -164 0
-155 -165 0
-146 -166 0
-147 -167 0
-148 -168 0
-149 -169 0
-150 -170 0
-146 -151 0
-147 -152 0
-148 -153 0
-149 -154 0
-150 -155 0
-141 -161 0
-142 -162 0
-143 -163 0
-144 -164 0
-145 -165 0
-141 -156 0
-142 -157 0
-143 -158 0
-144 -159 0
-145 -160 0
-141 -151 0
-142 -152 0
-143 -153 0
-144 -154 0
-145 -155 0
-141 -146 0
-142 -147 0
-143 -148 0
-144 -149 0
-145 -150 0
-136 -156 0
-137 -157 0
-138 -158 0
-139 -159 0
-140 -160 0
-131 -151 0
-132 -152 0
-133 -153 0
-134 -154 0
-135 -155 0
-131 -146 0
-132 -147 0
-133 -148 0
-134 -149 0
-135 -150 0
-121 -141 0
-122 -142 0
-123 -143 0
-124 -144 0
-125 -145 0
-121 -136 0
-122 -137 0
-123 -138 0
-124 -139 0
-125 -140 0
-121 -131 0
-122 -132 0
-123 -133 0
-124 -134 0
-125 -135 0
-121 -126 0
-122 -127 0
-123 -128 0
-124 -129 0
-125 -130 0
-111 -131 0
-112 -132 0
-113 -133 0
-114 -134 0
-115 -135 0
-111 -126 0
-112 -127 0
-113 -128 0
-114 -129 0
-115 -130 0
-111 -116 0
-112 -117 0
-113 -118 0
-114 -119 0
-115 -120 0
-106 -126 0
-107 -127 0
-108 -128 0
-109 -129 0
-110 -130 0
-106 -111 0
-107 -112 0
-108 -113 0
-109 -114 0
-110 -115 0
-101 -116 0
-102 -117 0
-103 -118 0
-104 -119 0
-105 -120 0
-101 -111 0
-102 -112 0
-103 -113 0
-104 -114 0
-105 -115 0
-96 -111 0
-97 -112 0
-98 -113 0
-99 -114 0
-100 -115 0
-96 -101 0
-97 -102 0
-98 -103 0
-99 -104 0
-100 -105 0
-91 -96 0
-92 -97 0
-93 -98 0
-94 -99 0
-95 -100 0
-86 -106 0
-87 -107 0
-88 -108 0
-89 -109 0
-90 -110 0
-86 -96 0
-87 -97 0
-88 -98 0
-89 -99 0
-90 -100 0
-86 -91 0
-87 -92 0
-88 -93 0
-89 -94 0
-90 -95 0
-76 -96 0
-77 -97 0
-78 -98 0
-79 -99 0
-80 -100 0
-76 -91 0
-77 -92 0
-78 -93 0
-79 -94 0
-80 -95 0
-76 -86 0
-77 -87 0
-78 -88 0
-79 -89 0
-80 -90 0
-71 -86 0
-72 -87 0
-73 -88 0
-74 -89 0
-75 -90 0
-66 -86 0
-67 -87 0
-68 -88 0
-69 -89 0
-70 -90 0
-66 -76 0
-67 -77 0
-68 -78 0
-69 -79 0
-70 -80 0
-56 -76 0
-57 -77 0
-58 -78 0
-59 -79 0
-60 -80 0
-56 -66 0
-57 -67 0
-58 -68 0
-59 -69 0
-60 -70 0
-51 -56 0
-52 -57 0
-53 -58 0
-54 -59 0
-55 -60 0
-46 -61 0
-47 -62 0
-48 -63 0
-49 -64 0
-50 -65 0
-46 -56 0
-47 -57 0
-48 -58 0
-49 -59 0
-50 -60 0
-41 -51 0
-42 -52 0
-43 -53 0
-44 -54 0
-45 -55 0
-36 -51 0
-37 -52 0
-38 -53 0
-39 -54 0
-40 -55 0
-36 -46 0
-37 -47 0
-38 -48 0
-39 -49 0
-40 -50 0
-31 -46 0
-32 -47 0
-33 -48 0
-34 -49 0
-35 -50 0
-31 -36 0
-32 -37 0
-33 -38 0
-34 -39 0
-35 -40 0
-26 -46 0
-27 -47 0
-28 -48 0
-29 -49 0
-30 -50 0
-26 -41 0
-27 -42 0
-28 -43 0
-29 -44 0
-30 -45 0
-26 -36 0
-27 -37 0
-28 -38 0
-29 -39 0
-30 -40 0
-21 -26 0
-22 -27 0
-23 -28 0
-24 -29 0
-25 -30 0
-16 -36 0
-17 -37 0
-18 -38 0
-19 -39 0
-20 -40 0
-11 -31 0
-12 -32 0
-13 -33 0
-14 -34 0
-15 -35 0
-11 -21 0
-12 -22 0
-13 -23 0
-14 -24 0
-15 -25 0
-1 -16 0
-2 -17 0
-3 -18 0
-4 -19 0
-5 -20 0
-1 -11 0
-2 -12 0
-3 -13 0
-4 -14 0
-5 -15 0
-1 -6 0
-2 -7 0
-3 -8 0
-4 -9 0
-5 -10 0
-26 -281 0
-27 -282 0
-28 -283 0
-29 -284 0
-30 -285 0
-16 -316 0
-17 -317 0
-18 -318 0
-19 -319 0
-20 -320 0
-26 -416 0
-27 -417 0
-28 -418 0
-29 -419 0
-30 -420 0
-131 -231 0
-132 -232 0
-133 -233 0
-134 -234 0
-135 -235 0
-86 -381 0
-87 -382 0
-88 -383 0
-89 -384 0
-90 -385 0
-46 -146 0
-47 -147 0
-48 -148 0
-49 -149 0
-50 -150 0
-1 -231 0
-2 -232 0
-3 -233 0
-4 -234 0
-5 -235 0
-186 -276 0
-187 -277 0
-188 -278 0
-189 -279 0
-190 -280 0
-101 -231 0
-102 -232 0
-103 -233 0
-104 -234 0
-105 -235 0
-376 -421 0
-377 -422 0
-378 -423 0
-379 -424 0
-380 -425 0
-116 -406 0
-117 -407 0
-118 -408 0
-119 -409 0
-120 -410 0
-86 -321 0
-87 -322 0
-88 -323 0
-89 -324 0
-90 -325 0
-416 -466 0
-417 -467 0
-418 -468 0
-419 -469 0
-420 -470 0
-126 -231 0
-127 -232 0
-128 -233 0
-129 -234 0
-130 -235 0
-16 -256 0
-17 -257 0
-18 -258 0
-19 -259 0
-20 -260 0
-36 -71 0
-37 -72 0
-38 -73 0
-39 -74 0
-40 -75 0
-181 -496 0
-182 -497 0
-183 -498 0
-184 -499 0
-185 -500 0
-76 -446 0
-77 -447 0
-78 -448 0
-79 -449 0
-80 -450 0
-116 -296 0
-117 -297 0
-118 -298 0
-119 -299 0
-120 -300 0
-126 -361 0
-127 -362 0
-128 -363 0
-129 -364 0
-130 -365 0
-116 -361 0
-117 -362 0
-118 -363 0
-119 -364 0
-120 -365 0
-61 -386 0
-62 -387 0
-63 -388 0
-64 -389 0
-65 -390 0
-426 -461 0
-427 -462 0
-428 -463 0
-429 -464 0
-430 -465 0
-81 -106 0
-82 -107 0
-83 -108 0
-84 -109 0
-85 -110 0
-86 -411 0
-87 -412 0
-88 -413 0
-89 -414 0
-90 -415 0
-61 -466 0
-62 -467 0
-63 -468 0
-64 -469 0
-65 -470 0
-326 -486 0
-327 -487 0
-328 -488 0
-329 -489 0
-330 -490 0
-31 -401 0
-32 -402 0
-33 -403 0
-34 -404 0
-35 -405 0
-16 -151 0
-17 -152 0
-18 -153 0
-19 -154 0
-20 -155 0
-1 -441 0
-2 -442 0
-3 -443 0
-4 -444 0
-5 -445 0
-221 -271 0
-222 -272 0
-223 -273 0
-224 -274 0
-225 -275 0
-196 -271 0
-197 -272 0
-198 -273 0
-199 -274 0
-200 -275 0
-56 -341 0
-57 -342 0
-58 -343 0
-59 -344 0
-60 -345 0
-116 -326 0
-117 -327 0
-118 -328 0
-119 -329 0
-120 -330 0
-91 -196 0
-92 -197 0
-93 -198 0
-94 -199 0
-95 -200 0
-96 -256 0
-97 -257 0
-98 -258 0
-99 -259 0
-100 -260 0
-201 -461 0
-202 -462 0
-203 -463 0
-204 -464 0
-205 -465 0
-21 -366 0
-22 -367 0
-23 -368 0
-24 -369 0
-25 -370 0
-311 -376 0
-312 -377 0
-313 -378 0
-314 -379 0
-315 -380 0
-201 -306 0
-202 -307 0
-203 -308 0
-204 -309 0
-205 -310 0
-16 -366 0
-17 -367 0
-18 -368 0
-19 -369 0
-20 -370 0
-336 -411 0
-337 -412 0
-338 -413 0
-339 -414 0
-340 -415 0
-226 -371 0
-227 -372 0
-228 -373 0
-229 -374 0
-230 -375 0
-166 -491 0
-167 -492 0
-168 -493 0
-169 -494 0
-170 -495 0
-201 -491 0
-202 -492 0
-203 -493 0
-204 -494 0
-205 -495 0
-231 -376 0
-232 -377 0
-233 -378 0
-234 -379 0
-235 -380 0
-16 -381 0
-17 -382 0
-18 -383 0
-19 -384 0
-20 -385 0
-251 -351 0
-252 -352 0
-253 -353 0
-254 -354 0
-255 -355 0
-121 -266 0
-122 -267 0
-123 -268 0
-124 -269 0
-125 -270 0
-306 -416 0
-307 -417 0
-308 -418 0
-309 -419 0
-310 -420 0
-421 -486 0
-422 -487 0
-423 -488 0
-424 -489 0
-425 -490 0
-46 -356 0
-47 -357 0
-48 -358 0
-49 -359 0
-50 -360 0
-166 -461 0
-167 -462 0
-168 -463 0
-169 -464 0
-170 -465 0
-6 -271 0
-7 -272 0
-8 -273 0
-9 -274 0
-10 -275 0
-106 -406 0
-107 -407 0
-108 -408 0
-109 -409 0
-110 -410 0
-46 -446 0
-47 -447 0
-48 -448 0
-49 -449 0
-50 -450 0
-236 -401 0
-237 -402 0
-238 -403 0
-239 -404 0
-240 -405 0
-111 -431 0
-112 -432 0
-113 -433 0
-114 -434 0
-115 -435 0
-281 -316 0
-282 -317 0
-283 -318 0
-284 -319 0
-285 -320 0
-86 -421 0
-87 -422 0
-88 -423 0
-89 -424 0
-90 -425 0
-136 -431 0
-137 -432 0
-138 -433 0
-139 -434 0
-140 -435 0
-26 -126 0
-27 -127 0
-28 -128 0
-29 -129 0
-30 -130 0
-36 -126 0
-37 -127 0
-38 -128 0
-39 -129 0
-40 -130 0
-6 -131 0
-7 -132 0
-8 -133 0
-9 -134 0
-10 -135 0
-126 -401 0
-127 -402 0
-128 -403 0
-129 -404 0
-130 -405 0
-31 -251 0
-32 -252 0
-33 -253 0
-34 -254 0
-35 -255 0
-136 -436 0
-137 -437 0
-138 -438 0
-139 -439 0
-140 -440 0
-176 -241 0
-177 -242 0
-178 -243 0
-179 -244 0
-180 -245 0
-116 -176 0
-117 -177 0
-118 -178 0
-119 -179 0
-120 -180 0
-96 -146 0
-97 -147 0
-98 -148 0
-99 -149 0
-100 -150 0
-121 -491 0
-122 -492 0
-123 -493 0
-124 -494 0
-125 -495 0
-416 -456 0
-417 -457 0
-418 -458 0
-419 -459 0
-420 -460 0
-331 -496 0
-332 -497 0
-333 -498 0
-334 -499 0
-335 -500 0
-6 -451 0
-7 -452 0
-8 -453 0
-9 -454 0
-10 -455 0
-166 -256 0
-167 -257 0
-168 -258 0
-169 -259 0
-170 -260 0
-226 -311 0
-227 -312 0
-228 -313 0
-229 -314 0
-230 -315 0
-151 -496 0
-152 -497 0
-153 -498 0
-154 -499 0
-155 -500 0
-226 -426 0
-227 -427 0
-228 -428 0
-229 -429 0
-230 -430 0
-226 -451 0
-227 -452 0
-228 -453 0
-229 -454 0
-230 -455 0
-66 -191 0
-67 -192 0
-68 -193 0
-69 -194 0
-70 -195 0
-346 -381 0
-347 -382 0
-348 -383 0
-349 -384 0
-350 -385 0
-366 -436 0
-367 -437 0
-368 -438 0
-369 -439 0
-370 -440 0
-231 -391 0
-232 -392 0
-233 -393 0
-234 -394 0
-235 -395 0
-386 -411 0
-387 -412 0
-388 -413 0
-389 -414 0
-390 -415 0
-271 -376 0
-272 -377 0
-273 -378 0
-274 -379 0
-275 -380 0
-411 -486 0
-412 -487 0
-413 -488 0
-414 -489 0
-415 -490 0
-96 -261 0
-97 -262 0
-98 -263 0
-99 -264 0
-100 -265 0
-231 -426 0
-232 -427 0
-233 -428 0
-234 -429 0
-235 -430 0
-446 -491 0
-447 -492 0
-448 -493 0
-449 -494 0
-450 -495 0
-81 -366 0
-82 -367 0
-83 -368 0
-84 -369 0
-85 -370 0
-71 -496 0
-72 -497 0
-73 -498 0
-74 -499 0
-75 -500 0
-26 -156 0
-27 -157 0
-28 -158 0
-29 -159 0
-30 -160 0
-321 -371 0
-322 -372 0
-323 -373 0
-324 -374 0
-325 -375 0
-226 -481 0
-227 -482 0
-228 -483 0
-229 -484 0
-230 -485 0
-31 -226 0
-32 -227 0
-33 -228 0
-34 -229 0
-35 -230 0
-416 -476 0
-417 -477 0
-418 -478 0
-419 -479 0
-420 -480 0
-131 -426 0
-132 -427 0
-133 -428 0
-134 -429 0
-135 -430 0
-136 -191 0
-137 -192 0
-138 -193 0
-139 -194 0
-140 -195 0
-136 -456 0
-137 -457 0
-138 -458 0
-139 -459 0
-140 -460 0
-221 -311 0
-222 -312 0
-223 -313 0
-224 -314 0
-225 -315 0
-121 -246 0
-122 -247 0
-123 -248 0
-124 -249 0
-125 -250 0
-201 -471 0
-202 -472 0
-203 -473 0
-204 -474 0
-205 -475 0
-156 -226 0
-157 -227 0
-158 -228 0
-159 -229 0
-160 -230 0
-106 -241 0
-107 -242 0
-108 -243 0
-109 -244 0
-110 -245 0
-76 -151 0
-77 -152 0
-78 -153 0
-79 -154 0
-80 -155 0
-51 -121 0
-52 -122 0
-53 -123 0
-54 -124 0
-55 -125 0
-11 -396 0
-12 -397 0
-13 -398 0
-14 -399 0
-15 -400 0
-201 -281 0
-202 -282 0
-203 -283 0
-204 -284 0
-205 -285 0
-26 -476 0
-27 -477 0
-28 -478 0
-29 -479 0
-30 -480 0
-11 -376 0
-12 -377 0
-13 -378 0
-14 -379 0
-15 -380 0
-21 -56 0
-22 -57 0
-23 -58 0
-24 -59 0
-25 -60 0
-71 -321 0
-72 -322 0
-73 -323 0
-74 -324 0
-75 -325 0
-371 -416 0
-372 -417 0
-373 -418 0
-374 -419 0
-375 -420 0
-61 -451 0
-62 -452 0
-63 -453 0
-64 -454 0
-65 -455 0
-181 -311 0
-182 -312 0
-183 -313 0
-184 -314 0
-185 -315 0
-41 -151 0
-42 -152 0
-43 -153 0
-44 -154 0
-45 -155 0
-131 -156 0
-132 -157 0
-133 -158 0
-134 -159 0
-135 -160 0
-56 -396 0
-57 -397 0
-58 -398 0
-59 -399 0
-60 -400 0
-206 -431 0
-207 -432 0
-208 -433 0
-209 -434 0
-210 -435 0
-151 -256 0
-152 -257 0
-153 -258 0
-154 -259 0
-155 -260 0
-66 -231 0
-67 -232 0
-68 -233 0
-69 -234 0
-70 -235 0
-121 -451 0
-122 -452 0
-123 -453 0
-124 -454 0
-125 -455 0
-136 -481 0
-137 -482 0
-138 -483 0
-139 -484 0
-140 -485 0
-11 -406 0
-12 -407 0
-13 -408 0
-14 -409 0
-15 -410 0
-111 -211 0
-112 -212 0
-113 -213 0
-114 -214 0
-115 -215 0
-71 -166 0
-72 -167 0
-73 -168 0
-74 -169 0
-75 -170 0
-181 -471 0
-182 -472 0
-183 -473 0
-184 -474 0
-185 -475 0
-156 -261 0
-157 -262 0
-158 -263 0
-159 -264 0
-160 -265 0
-326 -496 0
-327 -497 0
-328 -498 0
-329 -499 0
-330 -500 0
-261 -381 0
-262 -382 0
-263 -383 0
-264 -384 0
-265 -385 0
-96 -386 0
-97 -387 0
-98 -388 0
-99 -389 0
-100 -390 0
-111 -411 0
-112 -412 0
-113 -413 0
-114 -414 0
-115 -415 0
-131 -421 0
-132 -422 0
-133 -423 0
-134 -424 0
-135 -425 0
-81 -471 0
-82 -472 0
-83 -473 0
-84 -474 0
-85 -475 0
-96 -421 0
-97 -422 0
-98 -423 0
-99 -424 0
-100 -425 0
-121 -261 0
-122 -262 0
-123 -263 0
-124 -264 0
-125 -265 0
-126 -356 0
-127 -357 0
-128 -358 0
-129 -359 0
-130 -360 0
-146 -361 0
-147 -362 0
-148 -363 0
-149 -364 0
-150 -365 0
-111 -146 0
-112 -147 0
-113 -148 0
-114 -149 0
-115 -150 0
-21 -131 0
-22 -132 0
-23 -133 0
-24 -134 0
-25 -135 0
-261 -321 0
-262 -322 0
-263 -323 0
-264 -324 0
-265 -325 0
-141 -166 0
-142 -167 0
-143 -168 0
-144 -169 0
-145 -170 0
-266 -391 0
-267 -392 0
-268 -393 0
-269 -394 0
-270 -395 0
-51 -256 0
-52 -257 0
-53 -258 0
-54 -259 0
-55 -260 0
-6 -121 0
-7 -122 0
-8 -123 0
-9 -124 0
-10 -125 0
-6 -211 0
-7 -212 0
-8 -213 0
-9 -214 0
-10 -215 0
-61 -401 0
-62 -402 0
-63 -403 0
-64 -404 0
-65 -405 0
-11 -461 0
-12 -462 0
-13 -463 0
-14 -464 0
-15 -465 0
-201 -311 0
-202 -312 0
-203 -313 0
-204 -314 0
-205 -315 0
-21 -271 0
-22 -272 0
-23 -273 0
-24 -274 0
-25 -275 0
-51 -476 0
-52 -477 0
-53 -478 0
-54 -479 0
-55 -480 0
-36 -441 0
-37 -442 0
-38 -443 0
-39 -444 0
-40 -445 0
-151 -261 0
-152 -262 0
-153 -263 0
-154 -264 0
-155 -265 0
-106 -261 0
-107 -262 0
-108 -263 0
-109 -264 0
-110 -265 0
-241 -351 0
-242 -352 0
-243 -353 0
-244 -354 0
-245 -355 0
-26 -226 0
-27 -227 0
-28 -228 0
-29 -229 0
-30 -230 0
-26 -396 0
-27 -397 0
-28 -398 0
-29 -399 0
-30 -400 0
-16 -376 0
-17 -377 0
-18 -378 0
-19 -379 0
-20 -380 0
-341 -426 0
-342 -427 0
-343 -428 0
-344 -429 0
-345 -430 0
-66 -256 0
-67 -257 0
-68 -258 0
-69 -259 0
-70 -260 0
-6 -366 0
-7 -367 0
-8 -368 0
-9 -369 0
-10 -370 0
-436 -486 0
-437 -487 0
-438 -488 0
-439 -489 0
-440 -490 0
-1 -181 0
-2 -182 0
-3 -183 0
-4 -184 0
-5 -185 0
-101 -436 0
-102 -437 0
-103 -438 0
-104 -439 0
-105 -440 0
-111 -226 0
-112 -227 0
-113 -228 0
-114 -229 0
-115 -230 0
-11 -41 0
-12 -42 0
-13 -43 0
-14 -44 0
-15 -45 0
-316 -416 0
-317 -417 0
-318 -418 0
-319 -419 0
-320 -420 0
-426 -476 0
-427 -477 0
-428 -478 0
-429 -479 0
-430 -480 0
-91 -291 0
-92 -292 0
-93 -293 0
-94 -294 0
-95 -295 0
-51 -236 0
-52 -237 0
-53 -238 0
-54 -239 0
-55 -240 0
-151 -176 0
-152 -177 0
-153 -178 0
-154 -179 0
-155 -180 0
-166 -466 0
-167 -467 0
-168 -468 0
-169 -469 0
-170 -470 0
-151 -476 0
-152 -477 0
-153 -478 0
-154 -479 0
-155 -480 0
-1 -306 0
-2 -307 0
-3 -308 0
-4 -309 0
-5 -310 0
-191 -301 0
-192 -302 0
-193 -303 0
-194 -304 0
-195 -305 0
-326 -421 0
-327 -422 0
-328 -423 0
-329 -424 0
-330 -425 0
-71 -391 0
-72 -392 0
-73 -393 0
-74 -394 0
-75 -395 0
-166 -286 0
-167 -287 0
-168 -288 0
-169 -289 0
-170 -290 0
-156 -246 0
-157 -247 0
-158 -248 0
-159 -249 0
-160 -250 0
-116 -476 0
-117 -477 0
-118 -478 0
-119 -479 0
-120 -480 0
-181 -276 0
-182 -277 0
-183 -278 0
-184 -279 0
-185 -280 0
-201 -341 0
-202 -342 0
-203 -343 0
-204 -344 0
-205 -345 0
-256 -446 0
-257 -447 0
-258 -448 0
-259 -449 0
-260 -450 0
